NAME : kroB100Preorder.7534.tour
COMMENT : Length = 7534
COMMENT : Found by LKH [Keld Helsgaun] Mon May  4 11:48:44 2020
TYPE : TOUR
DIMENSION : 100
TOUR_SECTION
1
95
98
32
59
76
29
8
99
97
91
28
3
11
93
85
73
53
70
39
40
67
5
62
69
26
100
56
81
79
47
65
37
72
20
38
80
75
30
49
86
68
10
21
90
46
9
25
34
7
84
58
52
54
88
23
22
55
24
18
45
36
96
19
92
44
41
17
78
13
63
31
48
51
82
33
15
6
4
83
64
14
42
2
16
77
50
43
89
87
66
74
60
57
94
35
61
27
71
12
-1
EOF
